Maximize

27.5 b0 + 22.5 b1 + 33.0 b2 + 6 b3 + 8 b4 + 10 b5 + 38.0 b6 + 6 b7 + 8 b8 + 10 b9 + 216.5 b10 + 25.5 b11 + 6 b12 + 8 b13 + 10 b14 + 72.0 b15.v0 + 76.0 b15.v1 + 92.0 b16 + 55.5 b17 + 538.5 b18.v0 + 538.5 b18.v1 + 101.0 b19.v0 + 99.0 b19.v1 + 18.5 b20 + 521.0 b21 + 82.5 b22 + 305.5 b23.v0 + 305.5 b23.v1 + 106.0 b24 + 37.0 b25.v0 + 35.0 b25.v1 + 250.5 b26 + 8 b27 + 10 b28 + 98.0 b29 + 8 b30 + 10 b31


Subject to

\ === tcfg constraints ===
dSta_0 = 1
b0 - dSta_0 = 0
b0 - d0_1 = 0
b1 - d0_1 = 0
b1 - d1_2 = 0
b2 - d1_2 = 0
b2 - d2_6 - d2_3 = 0
b3 - d2_3 = 0
b3 - d3_4 = 0
b4 - d3_4 = 0
b4 - d4_5 = 0
b5 - d4_5 = 0
b6 - d2_6 = 0
b6 - d6_10 - d6_7 = 0
b7 - d6_7 = 0
b7 - d7_8 = 0
b8 - d7_8 = 0
b8 - d8_9 = 0
b9 - d8_9 = 0
b10 - d6_10 = 0
b10 - d10_15 - d10_11 = 0
b11 - d10_11 = 0
b11 - d11_15 - d11_12 = 0
b12 - d11_12 = 0
b12 - d12_13 = 0
b13 - d12_13 = 0
b13 - d13_14 = 0
b14 - d13_14 = 0
b15 - d10_15 - d11_15 = 0
b15 - d15_19 - d15_16 = 0
b16 - d15_16 = 0
b16 - d16_18 - d16_17 = 0
b17 - d16_17 = 0
b17 - d17_18 = 0
b18 - d16_18 - d17_18 = 0
b18 - d18_19 = 0
b19 - d15_19 - d18_19 = 0
b19 - d19_29 - d19_20 = 0
b20 - d19_20 = 0
b20 - d20_21 = 0
b21 - d20_21 = 0
b21 - d21_23 - d21_22 = 0
b22 - d21_22 = 0
b22 - d22_23 = 0
b23 - d21_23 - d22_23 = 0
b23 - d23_25 - d23_24 = 0
b24 - d23_24 = 0
b24 - d24_25 = 0
b25 - d23_25 - d24_25 = 0
b25 - d25_26 = 0
b26 - d25_26 = 0
b26 - d26_27 = 0
b27 - d26_27 = 0
b27 - d27_28 = 0
b28 - d27_28 = 0
b29 - d19_29 = 0
b29 - d29_30 = 0
b30 - d29_30 = 0
b30 - d30_31 = 0
b31 - d30_31 = 0


\ === header constraints ===



\ === context constraints ===
b15 - b15.v0 - b15.v1 = 0
b15.v0 - d10_15 = 0
b15.v1 - d11_15 = 0
b18 - b18.v0 - b18.v1 = 0
b18.v0 - d16_18 = 0
b18.v1 - d17_18 = 0
b19 - b19.v0 - b19.v1 = 0
b19.v0 - d15_19 = 0
b19.v1 - d18_19 = 0
b23 - b23.v0 - b23.v1 = 0
b23.v0 - d21_23 = 0
b23.v1 - d22_23 = 0
b25 - b25.v0 - b25.v1 = 0
b25.v0 - d23_25 = 0
b25.v1 - d24_25 = 0


\ === inst cache constraints ===



\ === data cache constraints ===



Generals


b0
b1
b2
b3
b4
b5
b6
b7
b8
b9
b10
b11
b12
b13
b14
b15
b15.v0
b15.v1
b16
b17
b18
b18.v0
b18.v1
b19
b19.v0
b19.v1
b20
b21
b22
b23
b23.v0
b23.v1
b24
b25
b25.v0
b25.v1
b26
b27
b28
b29
b30
b31
d0_1
d1_2
d2_3
d2_6
d3_4
d4_5
d6_7
d6_10
d7_8
d8_9
d10_11
d10_15
d11_12
d11_15
d12_13
d13_14
d15_16
d15_19
d16_17
d16_18
d17_18
d18_19
d19_20
d19_29
d20_21
d21_22
d21_23
d22_23
d23_24
d23_25
d24_25
d25_26
d26_27
d27_28
d29_30
d30_31
dSta_0


End
\ total cons: 90    total vars: 79
